c description: Random 3-CNF over 12 variables and 48 clauses
p cnf 12 48
3 7 9 0
2 9 -11 0
-1 2 9 0
-3 -9 -11 0
3 4 -5 0
1 6 9 0
5 8 12 0
-3 10 -11 0
6 -8 -11 0
-1 -2 8 0
-2 -11 -12 0
-9 10 -12 0
5 -6 -12 0
1 -7 9 0
1 4 -5 0
1 -4 5 0
4 -5 -9 0
5 6 -7 0
6 7 8 0
-1 -6 8 0
2 3 -5 0
-3 4 -11 0
-3 -5 8 0
4 6 -10 0
-3 4 5 0
-1 -4 -11 0
4 -8 -12 0
6 10 -12 0
-3 -8 -10 0
-2 -11 12 0
-4 -6 -12 0
1 5 -6 0
1 -7 -11 0
2 -8 -12 0
4 7 9 0
-2 -7 8 0
-6 -7 11 0
-1 -5 -11 0
1 5 -9 0
4 5 6 0
2 -6 10 0
1 3 5 0
-1 10 11 0
4 8 -12 0
-5 7 9 0
-4 -9 10 0
-6 -10 12 0
-4 9 10 0